c t mc
c file mc2020_track1_009.cnf
p cnf 460 507
100 0
-97 0
-2 0
-11 0
-12 0
-14 0
-6 0
-8 0
-18 0
-10 0
-29 0
-31 0
-41 0
-33 0
-27 0
-40 0
-71 0
-70 0
-91 0
-93 0
-68 0
-17 0
-92 0
-96 0
-316 53 -62 63 0
315 -53 -62 -63 0
-315 -53 -62 63 0
314 52 61 -62 0
-314 52 61 62 0
313 -52 61 -62 0
-313 -52 61 62 0
312 52 -61 -62 0
-312 52 -61 62 0
311 -52 -61 -62 0
-311 -52 -61 62 0
-60 50 59 308 0
-308 50 59 60 0
307 -50 59 -60 0
-307 -50 59 60 0
306 50 -59 -60 0
-306 50 -59 60 0
305 -50 -59 -60 0
266 48 39 -49 0
-266 48 39 49 0
265 48 -39 -49 0
-265 48 -39 49 0
264 -48 39 -49 0
333 -67 -57 66 0
-333 67 -57 66 0
332 -66 57 -67 0
-332 -66 57 67 0
331 -67 -57 -66 0
-331 67 -57 -66 0
330 65 56 -66 0
-330 65 56 66 0
329 65 -66 -56 0
-329 65 66 -56 0
328 -65 56 -66 0
-328 66 56 -65 0
-320 54 -63 64 0
320 54 -63 -64 0
-321 -54 63 64 0
321 -54 63 -64 0
-322 54 63 64 0
319 -54 -63 -64 0
-319 -54 -63 64 0
318 53 62 -63 0
-318 53 62 63 0
317 -53 62 -63 0
-317 -53 62 63 0
316 53 -62 -63 0
324 -64 55 -65 0
-325 64 -55 65 0
325 64 -55 -65 0
-326 64 55 65 0
326 64 55 -65 0
-327 66 -65 -56 0
327 -66 -56 -65 0
-275 51 -42 52 0
274 -52 -51 42 0
-274 -51 52 42 0
273 -52 -51 -42 0
-273 -51 52 -42 0
270 49 -30 -50 0
-270 49 -30 50 0
269 49 30 -50 0
-269 49 30 50 0
268 -49 -30 -50 0
-268 -49 -30 50 0
267 -49 30 -50 0
-267 -49 30 50 0
-177 -16 25 26 0
176 16 -25 -26 0
-176 16 -25 26 0
-264 -48 39 49 0
263 -48 -39 -49 0
-263 -48 -39 49 0
262 38 47 -48 0
-262 38 47 48 0
261 -38 47 -48 0
-261 -38 47 48 0
260 38 -47 -48 0
-260 38 -47 48 0
259 -38 -47 -48 0
-259 -38 -47 48 0
258 37 46 -47 0
302 49 -58 -59 0
-302 49 -58 59 0
301 -49 -58 -59 0
-301 -49 -58 59 0
300 48 57 -58 0
-300 48 57 58 0
299 -48 57 -58 0
-299 -48 57 58 0
322 54 63 -64 0
-323 -64 -55 65 0
323 -64 -55 -65 0
-324 -64 55 65 0
288 54 45 -55 0
-288 54 45 55 0
287 54 -45 -55 0
275 51 -42 -52 0
-276 51 52 42 0
276 -52 51 42 0
-281 -44 -53 54 0
281 -44 -53 -54 0
-282 44 -53 54 0
282 44 -53 -54 0
-283 -44 53 54 0
283 -44 53 -54 0
-284 44 53 54 0
284 44 53 -54 0
-285 -54 -45 55 0
285 -54 -45 -55 0
-286 -54 45 55 0
286 -54 45 -55 0
-287 54 -45 55 0
419 -80 -89 -90 0
-420 80 -89 90 0
420 80 -89 -90 0
-421 -80 89 90 0
411 -88 -78 -87 0
-412 88 78 -87 0
-417 -79 88 89 0
416 79 -88 -89 0
-416 79 -88 89 0
415 -79 -88 -89 0
-415 -79 -88 89 0
414 -88 78 87 0
-414 88 78 87 0
413 -88 -78 87 0
-413 87 -78 88 0
412 -88 78 -87 0
-411 88 -78 -87 0
406 85 76 -86 0
-406 85 76 86 0
405 85 -76 -86 0
-405 85 -76 86 0
403 -85 -76 -86 0
-404 -85 76 86 0
404 -85 76 -86 0
298 48 -57 -58 0
-298 48 -57 58 0
297 -48 -57 -58 0
-297 -48 -57 58 0
-402 75 84 85 0
401 -75 84 -85 0
-401 -75 84 85 0
400 75 -84 -85 0
-400 75 -84 85 0
399 -75 -84 -85 0
-399 -75 -84 85 0
398 74 83 -84 0
440 85 94 -95 0
-440 85 94 95 0
439 -85 94 -95 0
417 -79 88 -89 0
-418 79 88 89 0
418 79 88 -89 0
-419 -80 90 -89 0
-305 -50 -59 60 0
304 49 58 -59 0
-304 49 58 59 0
303 -49 58 -59 0
-303 -49 58 59 0
-361 -65 -74 75 0
66 -67 57 334 0
-334 66 67 57 0
421 -80 -90 89 0
-422 80 90 89 0
422 80 -90 89 0
-437 -85 -94 95 0
437 -85 -94 -95 0
-438 85 -94 95 0
438 85 -94 -95 0
-439 -85 94 95 0
380 -79 78 69 0
-380 79 78 69 0
379 -79 -69 78 0
-379 79 -69 78 0
378 -79 -78 69 0
-378 79 -78 69 0
377 -79 -69 -78 0
-377 79 -69 -78 0
76 67 -77 372 0
-370 -76 67 77 0
-372 76 67 77 0
370 -76 67 -77 0
-371 76 -67 77 0
371 76 -67 -77 0
-403 -85 -76 86 0
402 75 84 -85 0
-362 65 -74 75 0
362 65 -74 -75 0
-363 -65 74 75 0
363 -65 74 -75 0
-364 65 74 75 0
364 65 74 -75 0
-365 -66 -75 76 0
365 -66 -75 -76 0
-366 66 -75 76 0
366 66 -75 -76 0
-367 -66 75 76 0
367 -66 75 -76 0
-368 66 75 76 0
368 66 75 -76 0
-369 -76 -67 77 0
-398 74 83 84 0
397 -74 -84 83 0
-397 -74 84 83 0
396 74 -83 -84 0
-396 74 -83 84 0
395 -74 -84 -83 0
-395 -74 84 -83 0
212 34 25 -35 0
393 82 -73 -83 0
-393 82 -73 83 0
392 -82 73 -83 0
-392 -82 73 83 0
391 -82 -73 -83 0
-391 -82 -73 83 0
-381 -79 80 69 0
381 -79 -80 69 0
-382 -79 -69 80 0
382 -79 -69 -80 0
-383 79 69 80 0
383 79 69 -80 0
-384 79 -69 80 0
384 79 -69 -80 0
-387 82 -81 -72 0
387 -82 -81 -72 0
-388 -81 72 82 0
388 -81 72 -82 0
-389 82 -72 81 0
389 -82 -72 81 0
-390 81 72 82 0
390 81 72 -82 0
369 -76 -67 -77 0
361 -65 -74 -75 0
-197 -21 -22 32 0
186 -26 7 -28 0
-186 -26 7 28 0
185 -26 -7 -28 0
-185 -26 -7 28 0
26 -28 7 184 0
26 28 7 -184 0
-125 13 -1 -3 0
125 -13 -1 -3 0
-126 13 -1 3 0
126 -13 -1 3 0
-127 13 1 -3 0
127 -13 1 -3 0
-128 13 1 3 0
128 -13 1 3 0
-133 -5 15 -4 0
133 -5 -15 -4 0
-134 5 15 -4 0
134 5 -15 -4 0
214 26 -35 -36 0
-214 26 -35 36 0
213 -26 -35 -36 0
-213 -26 -35 36 0
-212 34 25 35 0
211 -35 -25 34 0
-211 35 -25 34 0
210 -34 25 -35 0
-210 -34 25 35 0
209 -35 -25 -34 0
-209 35 -25 -34 0
208 -23 -34 24 0
-208 -23 34 24 0
207 -23 -34 -24 0
-207 -23 34 -24 0
206 23 -34 24 0
-206 23 34 24 0
205 23 -34 -24 0
-205 23 34 -24 0
-170 23 4 24 0
169 23 -4 -24 0
-169 23 -4 24 0
168 -23 4 -24 0
-168 -23 4 24 0
167 -23 -4 -24 0
-167 -23 -4 24 0
166 13 22 -23 0
197 -21 -22 -32 0
163 -13 -22 -23 0
-163 -13 -22 23 0
-153 -19 -9 20 0
153 -19 -9 -20 0
-135 4 15 -5 0
135 4 -15 -5 0
-136 4 15 5 0
136 4 -15 5 0
-137 16 -15 5 0
137 -16 -15 5 0
183 26 -7 -28 0
-183 26 -7 28 0
-138 -5 -15 16 0
138 -5 -15 -16 0
-139 5 15 16 0
139 -16 5 15 0
178 16 25 -26 0
-178 16 25 26 0
177 -16 25 -26 0
221 -28 -37 -38 0
-222 28 -37 38 0
222 28 -37 -38 0
-223 -28 37 38 0
225 -38 -19 -39 0
-225 -38 -19 39 0
175 -16 -25 -26 0
-175 -16 26 -25 0
-140 -5 15 16 0
140 -5 15 -16 0
170 23 4 -24 0
-226 -38 19 39 0
226 -38 19 -39 0
-254 36 45 46 0
253 -36 45 -46 0
-253 -36 45 46 0
252 36 -45 -46 0
-252 36 -45 46 0
251 -36 -45 -46 0
-251 -36 -45 46 0
250 35 44 -45 0
-250 35 44 45 0
249 -35 44 -45 0
-227 38 -19 39 0
227 38 -19 -39 0
-228 38 19 39 0
228 38 19 -39 0
-166 13 22 23 0
165 -13 22 -23 0
-165 -13 22 23 0
164 13 -22 -23 0
-164 13 -22 23 0
242 -23 42 -43 0
-239 23 -42 43 0
239 23 -42 -43 0
-242 -23 42 43 0
241 23 -43 42 0
-241 23 43 42 0
240 -23 -43 -42 0
-240 -23 43 -42 0
-217 -36 37 26 0
217 -36 -37 26 0
-218 -26 37 -36 0
218 -26 -37 -36 0
-219 26 37 36 0
219 26 -37 36 0
-220 -26 37 36 0
220 -26 -37 36 0
-221 -28 -37 38 0
216 26 35 -36 0
-216 26 35 36 0
394 82 73 -83 0
-394 82 73 83 0
224 28 37 -38 0
-258 37 46 47 0
257 -37 46 -47 0
-257 -37 46 47 0
256 37 -46 -47 0
-215 -26 35 36 0
215 -26 35 -36 0
-224 28 37 38 0
223 -28 37 -38 0
254 36 45 -46 0
-58 -67 69 -59 0
-59 78 -77 -69 0
-249 -35 44 45 0
248 35 -44 -45 0
-248 35 -44 45 0
247 -35 -44 -45 0
-247 -35 -44 45 0
-67 -58 -69 59 0
59 78 -77 69 0
-256 37 -46 47 0
255 -37 -46 -47 0
-255 -37 -46 47 0
30 -19 20 0
-272 51 21 0
-63 -72 73 0
-198 32 22 0
112 -5 -7 0
-112 -5 7 0
111 5 -7 0
-111 5 7 0
198 -32 22 0
-9 -19 7 0
271 -51 -21 0
-271 51 -21 0
-34 -44 43 0
44 34 43 0
63 -72 -73 0
-63 -73 72 0
63 72 73 0
157 1 -21 0
67 -59 -69 0
-59 58 -69 0
-155 20 19 0
24 -25 15 0
-115 -7 9 0
115 -9 -7 0
-116 7 9 0
-9 116 7 0
154 -20 9 0
-154 20 9 0
-1 -21 -22 0
-20 155 19 0
199 -32 21 0
104 -3 -1 0
103 -3 1 0
-104 3 -1 0
-59 69 -78 0
67 69 59 0
-103 3 1 0
58 69 59 0
-69 59 -78 0
99 -89 98 0
32 -199 21 0
-386 81 61 0
158 -21 -1 0
385 -81 -61 0
-52 -43 -53 0
-108 4 5 0
108 4 -5 0
-62 -61 -72 0
43 -52 53 0
-158 -1 21 0
272 -51 21 0
460 90 99 0
459 -90 99 0
458 90 -99 0
457 -90 -99 0
452 88 -98 0
-452 88 98 0
451 -88 -98 0
-451 -88 98 0
44 -34 -43 0
-44 34 -43 0
-32 -21 42 0
-157 1 21 0
-385 81 -61 0
310 51 -61 0
-310 51 61 0
309 -51 -61 0
-309 -51 61 0
47 -56 -57 0
52 53 -43 0
-53 43 52 0
-55 46 -56 0
-94 84 83 0
-105 -3 4 0
105 -3 -4 0
-106 3 4 0
106 3 -4 0
-107 5 -4 0
107 -5 -4 0
-64 -74 73 0
386 -81 61 0
-77 86 -87 0
-73 74 0
-20 -30 0
62 72 0
-30 19 0
61 72 0
64 74 0
-7 19 0
9 19 0
-83 94 0
1 22 0
87 77 0
-86 87 0
-24 25 0
57 56 0
-98 -99 0
32 -42 0
89 -99 0
-42 21 0
-47 57 0
55 56 0
-46 56 0
-78 77 0
21 22 0
-15 25 0
-84 94 0
